sat
(
  (define-fun C2_VM2 () Int
    1)
  (define-fun PriceProv2 () Int
    210)
  (define-fun C1_VM3 () Int
    0)
  (define-fun PriceProv6 () Int
    210)
  (define-fun StorageProv5 () Int
    2000)
  (define-fun C2_VM3 () Int
    0)
  (define-fun C5_VM1 () Int
    1)
  (define-fun MemProv6 () Int
    7500)
  (define-fun VM1Type () Int
    136)
  (define-fun C4_VM1 () Int
    0)
  (define-fun C4_VM2 () Int
    0)
  (define-fun C1_VM4 () Int
    0)
  (define-fun C1_VM6 () Int
    0)
  (define-fun C4_VM6 () Int
    0)
  (define-fun StorageProv3 () Int
    2000)
  (define-fun StorageProv4 () Int
    12001)
  (define-fun PriceProv4 () Int
    0)
  (define-fun C3_VM6 () Int
    0)
  (define-fun C5_VM3 () Int
    0)
  (define-fun C3_VM3 () Int
    0)
  (define-fun PriceProv1 () Int
    460)
  (define-fun PriceProv3 () Int
    532)
  (define-fun C5_VM6 () Int
    1)
  (define-fun VM5Type () Int
    182)
  (define-fun ProcProv5 () Int
    4)
  (define-fun VM2Type () Int
    182)
  (define-fun StorageProv6 () Int
    2000)
  (define-fun C1_VM2 () Int
    0)
  (define-fun C4_VM3 () Int
    1)
  (define-fun ProcProv6 () Int
    4)
  (define-fun PriceProv5 () Int
    210)
  (define-fun C3_VM1 () Int
    1)
  (define-fun StorageProv1 () Int
    2000)
  (define-fun VM4Type () Int
    0)
  (define-fun ProcProv3 () Int
    8)
  (define-fun C2_VM5 () Int
    0)
  (define-fun ProcProv1 () Int
    8)
  (define-fun C5_VM4 () Int
    0)
  (define-fun C2_VM6 () Int
    1)
  (define-fun C3_VM5 () Int
    0)
  (define-fun MemProv2 () Int
    7500)
  (define-fun ProcProv4 () Int
    65)
  (define-fun MemProv5 () Int
    7500)
  (define-fun C3_VM2 () Int
    0)
  (define-fun C2_VM4 () Int
    0)
  (define-fun VM3Type () Int
    134)
  (define-fun C5_VM2 () Int
    1)
  (define-fun C5_VM5 () Int
    0)
  (define-fun C2_VM1 () Int
    0)
  (define-fun StorageProv2 () Int
    2000)
  (define-fun VM6Type () Int
    182)
  (define-fun MemProv1 () Int
    15000)
  (define-fun C3_VM4 () Int
    0)
  (define-fun C4_VM5 () Int
    0)
  (define-fun MemProv4 () Int
    122001)
  (define-fun C1_VM5 () Int
    1)
  (define-fun ProcProv2 () Int
    4)
  (define-fun MemProv3 () Int
    30000)
  (define-fun C4_VM4 () Int
    0)
  (define-fun C1_VM1 () Int
    0)
)
(objectives
 ( 17)
 ((+ 0 PriceProv1 PriceProv2 PriceProv3 PriceProv4 PriceProv5 PriceProv6) 1622)
)
(:added-eqs                   147168
 :arith-eq-adapter            51320
 :arith-bound-propagations-lp 56525
 :arith-conflicts             30
 :arith-diseq                 355841
 :arith-fixed-eqs             1571
 :arith-lower                 528233
 :arith-make-feasible         27893
 :arith-max-columns           350
 :arith-max-rows              20
 :arith-upper                 204144
 :binary-propagations         509089
 :bv-bit2core                 12384
 :bv-dynamic-diseqs           331276
 :bv->core-eq                 691
 :conflicts                   2512
 :decisions                   94334
 :del-clause                  416183
 :final-checks                54
 :max-memory                  75.82
 :memory                      74.60
 :minimized-lits              20968
 :mk-bool-var                 96089
 :mk-clause                   416497
 :mk-clause-binary            6672
 :num-allocs                  973210564
 :num-checks                  55
 :pb-conflicts                90
 :pb-predicates               78
 :pb-propagations             6518
 :pb-resolves                 84
 :propagations                1655976
 :restarts                    14
 :rlimit-count                11495232
 :solve-eqs-elim-vars         1
 :solve-eqs-steps             10
 :time                        1.01
 :total-time                  1.02)
